Route #1: 14 49 6 37 87
Route #2: 93 75
Route #3: 25 65 78 42 28
Route #4: 7 2 45 43 29 36 72 57
Route #5: 40 67 88 44
Route #6: 32 33 53 73 95 24
Route #7: 18 10 39
Route #8: 100 61 23
Route #9: 83 51 81
Route #10: 63 77 3
Route #11: 30 85 11 79
Route #12: 20 41 22 15
Route #13: 1 70 54
Route #14: 74 13 4
Route #15: 71 62 99 98 89
Route #16: 8 17
Route #17: 50 91 52
Route #18: 80 94 56 21
Route #19: 92 9 86
Route #20: 76 55 16 69
Route #21: 59 60 82
Route #22: 35 46 31
Route #23: 5 12 58
Route #24: 66 84 90 68
Route #25: 27 97 19
Route #26: 38 47 26 48 96 64 34
Cost 27591.0000
Time 16.0003